
Gurobi 11.0.0 (linux64) logging started Sat Jan  4 04:35:10 2025

Set parameter LogFile to value "gurobi.log"
Set parameter InfUnbdInfo to value 1
Gurobi Optimizer version 11.0.0 build v11.0.0rc2 (linux64 - "Ubuntu 22.04.4 LTS")

CPU model: AMD EPYC 7V13 64-Core Processor, instruction set [SSE2|AVX|AVX2]
Thread count: 128 physical cores, 128 logical processors, using up to 32 threads

Optimize a model with 75 rows, 231 columns and 211 nonzeros
Model fingerprint: 0x25644de7
Model has 116 quadratic constraints
Model has 24 general constraints
Variable types: 46 continuous, 185 integer (0 binary)
Coefficient statistics:
  Matrix range     [1e+00, 2e+01]
  QMatrix range    [1e+00, 4e+02]
  QLMatrix range   [1e+00, 1e+00]
  Objective range  [1e+00, 1e+00]
  Bounds range     [1e+00, 1e+06]
  RHS range        [1e+00, 4e+00]
  QRHS range       [5e+02, 5e+05]
  GenCon rhs range [1e+00, 1e+00]
  GenCon coe range [1e+00, 1e+00]
Using branch priorities (all 0).
Presolve added 47 rows and 78 columns
Presolve time: 0.01s
Presolved: 595 rows, 568 columns, 2651 nonzeros
Presolved model has 144 SOS constraint(s)
Presolved model has 36 bilinear constraint(s)
Warning: Model contains variables with very large bounds participating
         in product terms.
         Presolve was not able to compute smaller bounds for these variables.
         Consider bounding these variables or reformulating the model.


Solving non-convex MIQCP

Variable types: 140 continuous, 428 integer (128 binary)

Root relaxation: objective 6.826970e+01, 182 iterations, 0.00 seconds (0.00 work units)

    Nodes    |    Current Node    |     Objective Bounds      |     Work
 Expl Unexpl |  Obj  Depth IntInf | Incumbent    BestBd   Gap | It/Node Time

     0     0   68.26970    0   90          -   68.26970      -     -    0s
     0     0   74.19444    0   85          -   74.19444      -     -    0s
H    0     0                    242653.43750   74.19444   100%     -    0s
     0     0  119.26383    0   91 242653.437  119.26383   100%     -    0s
     0     0  122.85981    0   86 242653.437  122.85981   100%     -    0s
     0     0  131.24601    0  119 242653.437  131.24601   100%     -    0s
H    0     0                    242653.18750  131.31201   100%     -    0s
     0     0  131.31201    0  121 242653.187  131.31201   100%     -    0s
     0     0  131.56335    0  103 242653.187  131.56335   100%     -    0s
     0     0  131.62282    0   94 242653.187  131.62282   100%     -    0s
     0     0  163.28073    0   93 242653.187  163.28073   100%     -    0s
     0     0  163.28073    0   89 242653.187  163.28073   100%     -    0s
     0     0  163.74290    0   94 242653.187  163.74290   100%     -    0s
     0     0  314.61604    0   94 242653.187  314.61604   100%     -    0s
     0     0  645.15606    0  115 242653.187  645.15606   100%     -    0s
     0     0 1040.36436    0  106 242653.187 1040.36436   100%     -    0s
     0     0 1127.66830    0  105 242653.187 1127.66830   100%     -    0s
     0     0 1127.66830    0   46 242653.187 1127.66830   100%     -    1s
     0     0 1127.66830    0   57 242653.187 1127.66830   100%     -    1s
     0     0 1127.66830    0   66 242653.187 1127.66830   100%     -    1s
H    0     0                    126611.03182 1127.66830  99.1%     -    2s
     0     0 1127.66830    0   70 126611.032 1127.66830  99.1%     -    2s
     0     0 1127.66830    0   51 126611.032 1127.66830  99.1%     -    2s
     0     0 1127.66830    0   50 126611.032 1127.66830  99.1%     -    2s
     0     0 1127.66830    0   66 126611.032 1127.66830  99.1%     -    2s
     0     0 1127.66830    0   66 126611.032 1127.66830  99.1%     -    2s
     0     0 1127.66830    0   60 126611.032 1127.66830  99.1%     -    2s
     0     0 1127.66830    0   61 126611.032 1127.66830  99.1%     -    2s
     0     0 1127.66830    0   71 126611.032 1127.66830  99.1%     -    3s
     0     0 1127.66830    0   51 126611.032 1127.66830  99.1%     -    3s
H    0     0                    82916.854037 1127.66830  98.6%     -    3s
     0     2 1127.66830    0   49 82916.8540 1127.66830  98.6%     -    4s
H   18    28                    21940.187500 1127.66830  94.9%  15.7    4s
H   30    35                    21917.937500 1127.66830  94.9%  15.8    4s
H   32    35                    21804.812500 1127.66830  94.8%  15.2    4s
H   36    35                    14160.250000 1127.66830  92.0%  13.6    4s
H   38    35                    14026.812500 1127.66830  92.0%  13.0    4s
H   87    53                    13058.805707 1127.66830  91.4%  14.4    4s
H   88    53                    13021.893489 1127.66830  91.3%  14.6    4s
H  191   121                    12570.581002 1127.66830  91.0%  13.5    5s
H  500   193                    12570.456002 1127.66830  91.0%  10.7    5s
*  825   299              18    12535.782581 1127.66830  91.0%   8.7    5s
H 1047   335                    12186.798964 1127.66830  90.7%   7.5    5s
* 1146   335              30    11585.497000 1127.66830  90.3%   7.5    5s
H 2020   232                    11019.243207 10763.0276  2.33%   6.6    6s
* 2312   202              47    10800.022850 10763.0276  0.34%   6.6    6s
* 2558   161              49    10774.633998 10763.0276  0.11%   6.5    6s
* 2773   161              41    10774.133998 10763.0276  0.10%   6.4    6s
* 2994    85              45    10769.451350 10763.0277  0.06%   6.4    6s
* 3116    85              48    10767.215520 10763.0277  0.04%   6.3    6s

Cutting planes:
  Learned: 3
  Gomory: 12
  Cover: 2
  Implied bound: 70
  MIR: 41
  StrongCG: 3
  Flow cover: 7
  Inf proof: 3
  Mod-K: 1
  RLT: 29
  Relax-and-lift: 5
  PSD: 2

Explored 3368 nodes (22209 simplex iterations) in 7.13 seconds (0.22 work units)
Thread count was 32 (of 128 available processors)

Solution count 10: 10767.2 10769.5 10774.1 ... 12570.5

Optimal solution found (tolerance 1.00e-04)
Warning: max constraint violation (3.4142e-03) exceeds tolerance
Warning: max general constraint violation (3.4142e-03) exceeds tolerance
  Piecewise linearization of function constraints often causes big violation.
  Try to adjust the settings of the related parameters, such as FuncPieces.
Best objective 1.076721552048e+04, best bound 1.076655981515e+04, gap 0.0061%
